NAME          ClpDefau  FREE
ROWS
 N  OBJROW
 L  ZMUNI1_PCT
 L  ZMUNI2_PCT
 L  ZMUNI3_PCT
 L  ZMUNI4_PCT
 L  ZMUNI5_PCT
 L  ZMUNI6_PCT
 L  ZMUNI7_PCT
 L  ZMUNI8_PCT
 L  ZMUNI9_PCT
COLUMNS
    QMUNI1 OBJROW 1.          
    QMUNI1 ZMUNI1_PCT 64551.1628  
    QMUNI1 ZMUNI2_PCT 2929.6875   
    QMUNI1 ZMUNI3_PCT 8976.7456   
    QMUNI1 ZMUNI4_PCT 7316.5893   
    QMUNI1 ZMUNI5_PCT 757.0266    
    QMUNI1 ZMUNI6_PCT 920.2958    
    QMUNI1 ZMUNI7_PCT 4596.3288   
    QMUNI1 ZMUNI8_PCT 3656.0059   
    QMUNI1 ZMUNI9_PCT 1352.3101   
    QMUNI2 OBJROW 1.          
    QMUNI2 ZMUNI1_PCT 3369.5221   
    QMUNI2 ZMUNI2_PCT 48578.6438  
    QMUNI2 ZMUNI3_PCT 4640.5793   
    QMUNI2 ZMUNI4_PCT 5400.8484   
    QMUNI2 ZMUNI5_PCT 211.7157    
    QMUNI2 ZMUNI6_PCT 225.0672    
    QMUNI2 ZMUNI7_PCT 1538.086    
    QMUNI2 ZMUNI8_PCT 1827.24     
    QMUNI2 ZMUNI9_PCT 1053.6194   
    QMUNI3 OBJROW 1.          
    QMUNI3 ZMUNI1_PCT 8274.0784   
    QMUNI3 ZMUNI2_PCT 3333.6639   
    QMUNI3 ZMUNI3_PCT 61943.4357  
    QMUNI3 ZMUNI4_PCT 10334.0149  
    QMUNI3 ZMUNI5_PCT  -52.2614   
    QMUNI3 ZMUNI6_PCT 86.5937     
    QMUNI3 ZMUNI7_PCT 2329.6357   
    QMUNI3 ZMUNI8_PCT 2134.3232   
    QMUNI3 ZMUNI9_PCT 627.8991    
    QMUNI4 OBJROW 1.          
    QMUNI4 ZMUNI1_PCT 6918.7165   
    QMUNI4 ZMUNI2_PCT 4201.5075   
    QMUNI4 ZMUNI3_PCT 10626.6022  
    QMUNI4 ZMUNI4_PCT 227761.8408 
    QMUNI4 ZMUNI5_PCT 227.3559    
    QMUNI4 ZMUNI6_PCT 331.1158    
    QMUNI4 ZMUNI7_PCT 2736.2824   
    QMUNI4 ZMUNI8_PCT 2656.9367   
    QMUNI4 ZMUNI9_PCT 1270.2942   
    QMUNI5 OBJROW 1.          
    QMUNI5 ZMUNI1_PCT 419.2353    
    QMUNI5 ZMUNI2_PCT 347.5189    
    QMUNI5 ZMUNI3_PCT 391.388     
    QMUNI5 ZMUNI4_PCT 409.317     
    QMUNI5 ZMUNI5_PCT 40830.2307  
    QMUNI5 ZMUNI6_PCT 2591.3239   
    QMUNI5 ZMUNI7_PCT 238.0371    
    QMUNI5 ZMUNI8_PCT 165.1764    
    QMUNI5 ZMUNI9_PCT 340.271     
    QMUNI6 OBJROW 1.          
    QMUNI6 ZMUNI1_PCT 210.1899    
    QMUNI6 ZMUNI2_PCT 72.8607     
    QMUNI6 ZMUNI3_PCT 109.8633    
    QMUNI6 ZMUNI4_PCT 55.3131     
    QMUNI6 ZMUNI5_PCT 2662.4679   
    QMUNI6 ZMUNI6_PCT 35009.3842  
    QMUNI6 ZMUNI7_PCT 64.086899999
    QMUNI6 ZMUNI8_PCT  -193.7866  
    QMUNI6 ZMUNI9_PCT  -26.3214   
    QMUNI7 OBJROW 1.          
    QMUNI7 ZMUNI1_PCT 2671.814    
    QMUNI7 ZMUNI2_PCT 1016.9983   
    QMUNI7 ZMUNI3_PCT 2179.3366   
    QMUNI7 ZMUNI4_PCT 1830.2917   
    QMUNI7 ZMUNI5_PCT  -100.3266  
    QMUNI7 ZMUNI6_PCT 146.4844    
    QMUNI7 ZMUNI7_PCT 58395.3858  
    QMUNI7 ZMUNI8_PCT 3928.7567   
    QMUNI7 ZMUNI9_PCT 740.0512    
    QMUNI8 OBJROW 1.          
    QMUNI8 ZMUNI1_PCT 2509.6894   
    QMUNI8 ZMUNI2_PCT 1405.3345   
    QMUNI8 ZMUNI3_PCT 2372.7417   
    QMUNI8 ZMUNI4_PCT 2103.0426   
    QMUNI8 ZMUNI5_PCT 180.4352    
    QMUNI8 ZMUNI6_PCT 284.0043    
    QMUNI8 ZMUNI7_PCT 4339.5996   
    QMUNI8 ZMUNI8_PCT 54301.0712  
    QMUNI8 ZMUNI9_PCT 1523.5901   
    QMUNI9 OBJROW 1.          
    QMUNI9 ZMUNI1_PCT 767.5171    
    QMUNI9 ZMUNI2_PCT 1043.3197   
    QMUNI9 ZMUNI3_PCT 924.3012    
    QMUNI9 ZMUNI4_PCT 912.0941    
    QMUNI9 ZMUNI5_PCT  -11.6349   
    QMUNI9 ZMUNI6_PCT 34.1416     
    QMUNI9 ZMUNI7_PCT 799.1791    
    QMUNI9 ZMUNI8_PCT 1772.3084   
    QMUNI9 ZMUNI9_PCT 34491.7297  
RHS
    RHS ZMUNI1_PCT 16.949387007
    RHS ZMUNI2_PCT 12.389303123
    RHS ZMUNI3_PCT 14.145997841
    RHS ZMUNI4_PCT 24.278250865
    RHS ZMUNI5_PCT 1.4706209925
    RHS ZMUNI6_PCT 1.1862690798
    RHS ZMUNI7_PCT 0.0615399539
    RHS ZMUNI8_PCT 1.4797212644
    RHS ZMUNI9_PCT 0.054091019 
BOUNDS
 UP BOUND QMUNI1      1.1e+10
 LO BOUND QMUNI2 -0.000111391
 UP BOUND QMUNI2      1.1e+10
 LO BOUND QMUNI3 0.0         
 UP BOUND QMUNI3      1.1e+10
 LO BOUND QMUNI4 0.0         
 UP BOUND QMUNI4      1.1e+10
 LO BOUND QMUNI5 -0.000213945
 UP BOUND QMUNI5      1.1e+10
 LO BOUND QMUNI6 -0.000403911
 UP BOUND QMUNI6      1.1e+10
 UP BOUND QMUNI7      1.1e+10
 UP BOUND QMUNI8      1.1e+10
 LO BOUND QMUNI9 -0.000148566
 UP BOUND QMUNI9      1.1e+10
ENDATA
